\ENCODING=ISO-8859-1
\Problem name: c8v4i8o8

Minimize
 obj: 3.19 x1 + 2.59 x2 + 2.29 x3 + 2.89 x4 + 1.89 x5 + 1.99 x6 + 1.99 x7
      + 2.49 x8
Subject To
 c1: 60 x1 + 8 x2 + 8 x3 + 40 x4 + 15 x5 + 70 x6 + 25 x7 + 60 x8 - Rgc1  = 700
 c2: 10 x1 + 20 x2 + 15 x3 + 35 x4 + 15 x5 + 15 x6 + 25 x7 + 15 x8 - Rgc2
      = 700
 c3: 15 x1 + 20 x2 + 10 x3 + 10 x4 + 15 x5 + 15 x6 + 15 x7 + 10 x8 - Rgc3
      = 700
 c4: 20 x1 + 10 x3 + 40 x4 + 35 x5 + 30 x6 + 50 x7 + 20 x8 - Rgc4  = 700
Bounds
 0 <= x1 <= 100
 0 <= x2 <= 100
 0 <= x3 <= 100
 0 <= x4 <= 100
 0 <= x5 <= 100
 0 <= x6 <= 100
 0 <= x7 <= 100
 0 <= x8 <= 100
 0 <= Rgc1 <= 9300
 0 <= Rgc2 <= 9300
 0 <= Rgc3 <= 9300
 0 <= Rgc4 <= 9300
Generals
 x1  x2  x3  x4  x5  x6  x7  x8 
End
